Version identifier: 22.1.0.0 | 2022-03-09 | 1a383f8ce
CPXPARAM_Read_DataCheck                          1
CPXPARAM_TimeLimit                               600
1 of 1 MIP starts provided solutions.
MIP start 'm1' defined initial solution with objective 91.0000.
Tried aggregator 3 times.
MIP Presolve eliminated 280520 rows and 16704 columns.
MIP Presolve modified 2377 coefficients.
Aggregator did 266573 substitutions.
Reduced MIP has 19988 rows, 272005 columns, and 564512 nonzeros.
Reduced MIP has 271951 binaries, 54 generals, 0 SOSs, and 0 indicators.
Presolve time = 4.67 sec. (4354.86 ticks)
Tried aggregator 1 time.
Detecting symmetries...
Reduced MIP has 19988 rows, 272005 columns, and 564512 nonzeros.
Reduced MIP has 271951 binaries, 54 generals, 0 SOSs, and 0 indicators.
Presolve time = 0.85 sec. (434.28 ticks)
Probing fixed 81 vars, tightened 0 bounds.
Probing changed sense of 20 constraints.
Probing time = 0.51 sec. (67.02 ticks)
Clique table members: 549076.
MIP emphasis: balance optimality and feasibility.
MIP search method: dynamic search.
Parallel mode: deterministic, using up to 8 threads.
Root relaxation solution time = 3.14 sec. (1877.79 ticks)

        Nodes                                         Cuts/
   Node  Left     Objective  IInf  Best Integer    Best Bound    ItCnt     Gap

*     0+    0                           91.0000        0.0000           100.00%
      0     0       54.4185 15322       91.0000       54.4185       31   40.20%
      0     0        cutoff             91.0000                    327    0.00%
Elapsed time = 30.61 sec. (18005.28 ticks, tree = 0.01 MB, solutions = 1)

Gomory fractional cuts applied:  37

Root node processing (before b&c):
  Real time             =   30.64 sec. (18024.28 ticks)
Parallel b&c, 8 threads:
  Real time             =    0.00 sec. (0.00 ticks)
  Sync time (average)   =    0.00 sec.
  Wait time (average)   =    0.00 sec.
                          ------------
Total (root+branch&cut) =   30.64 sec. (18024.28 ticks)
